sat
(:eliminated-applications 146
 :eliminated-vars         666
 :max-memory              21.49
 :memory                  19.71
 :nlsat-conflicts         2713
 :nlsat-decisions         3393
 :nlsat-learned-added     2079
 :nlsat-learned-deleted   1103
 :nlsat-propagations      61740
 :nlsat-restarts          6
 :nlsat-stages            13252
 :num-allocs              19084837
 :rlimit-count            799293
 :time                    3.18
 :total-time              3.19)
